; benchmark generated from python API
(set-info :status unknown)
(declare-fun r_0_0 () Int)
(declare-fun c_0_0 () Int)
(declare-fun r_1_0 () Int)
(declare-fun c_1_0 () Int)
(declare-fun r_0_1 () Int)
(declare-fun c_0_1 () Int)
(declare-fun r_0_2 () Int)
(declare-fun c_0_2 () Int)
(declare-fun r_0_3 () Int)
(declare-fun c_0_3 () Int)
(declare-fun r_0_4 () Int)
(declare-fun c_0_4 () Int)
(declare-fun r_0_5 () Int)
(declare-fun c_0_5 () Int)
(declare-fun r_0_6 () Int)
(declare-fun c_0_6 () Int)
(declare-fun r_0_7 () Int)
(declare-fun c_0_7 () Int)
(declare-fun r_1_1 () Int)
(declare-fun c_1_1 () Int)
(declare-fun r_1_2 () Int)
(declare-fun c_1_2 () Int)
(declare-fun r_1_3 () Int)
(declare-fun c_1_3 () Int)
(declare-fun r_1_4 () Int)
(declare-fun c_1_4 () Int)
(declare-fun r_1_5 () Int)
(declare-fun c_1_5 () Int)
(declare-fun r_1_6 () Int)
(declare-fun c_1_6 () Int)
(declare-fun r_1_7 () Int)
(declare-fun c_1_7 () Int)
(declare-fun move_0_0 () Bool)
(declare-fun move_0_1 () Bool)
(declare-fun move_0_2 () Bool)
(declare-fun move_0_3 () Bool)
(declare-fun move_0_4 () Bool)
(declare-fun move_0_5 () Bool)
(declare-fun move_0_6 () Bool)
(declare-fun move_1_0 () Bool)
(declare-fun move_1_1 () Bool)
(declare-fun move_1_2 () Bool)
(declare-fun move_1_3 () Bool)
(declare-fun move_1_4 () Bool)
(declare-fun move_1_5 () Bool)
(declare-fun move_1_6 () Bool)
(assert
 (= r_0_0 0))
(assert
 (= c_0_0 2))
(assert
 (= r_1_0 2))
(assert
 (= c_1_0 0))
(assert
 (let (($x32 (>= r_0_0 0)))
 (and $x32 (< r_0_0 6))))
(assert
 (let (($x39 (>= c_0_0 0)))
 (and $x39 (< c_0_0 6))))
(assert
 (< (- (+ r_0_0 3) 1) 6))
(assert
 (let (($x117 (>= r_0_1 0)))
 (and $x117 (< r_0_1 6))))
(assert
 (let (($x125 (>= c_0_1 0)))
 (and $x125 (< c_0_1 6))))
(assert
 (< (- (+ r_0_1 3) 1) 6))
(assert
 (let (($x258 (>= r_0_2 0)))
 (and $x258 (< r_0_2 6))))
(assert
 (let (($x271 (>= c_0_2 0)))
 (and $x271 (< c_0_2 6))))
(assert
 (< (- (+ r_0_2 3) 1) 6))
(assert
 (let (($x423 (>= r_0_3 0)))
 (and $x423 (< r_0_3 6))))
(assert
 (let (($x415 (>= c_0_3 0)))
 (and $x415 (< c_0_3 6))))
(assert
 (< (- (+ r_0_3 3) 1) 6))
(assert
 (let (($x579 (>= r_0_4 0)))
 (and $x579 (< r_0_4 6))))
(assert
 (let (($x567 (>= c_0_4 0)))
 (and $x567 (< c_0_4 6))))
(assert
 (< (- (+ r_0_4 3) 1) 6))
(assert
 (let (($x733 (>= r_0_5 0)))
 (and $x733 (< r_0_5 6))))
(assert
 (let (($x725 (>= c_0_5 0)))
 (and $x725 (< c_0_5 6))))
(assert
 (< (- (+ r_0_5 3) 1) 6))
(assert
 (let (($x898 (>= r_0_6 0)))
 (and $x898 (< r_0_6 6))))
(assert
 (let (($x727 (>= c_0_6 0)))
 (and $x727 (< c_0_6 6))))
(assert
 (< (- (+ r_0_6 3) 1) 6))
(assert
 (let (($x1053 (>= r_0_7 0)))
 (and $x1053 (< r_0_7 6))))
(assert
 (let (($x1074 (>= c_0_7 0)))
 (and $x1074 (< c_0_7 6))))
(assert
 (< (- (+ r_0_7 3) 1) 6))
(assert
 (let (($x60 (>= r_1_0 0)))
 (and $x60 (< r_1_0 6))))
(assert
 (let (($x68 (>= c_1_0 0)))
 (and $x68 (< c_1_0 6))))
(assert
 (< (- (+ c_1_0 1) 1) 6))
(assert
 (let (($x142 (>= r_1_1 0)))
 (and $x142 (< r_1_1 6))))
(assert
 (let (($x149 (>= c_1_1 0)))
 (and $x149 (< c_1_1 6))))
(assert
 (< (- (+ c_1_1 1) 1) 6))
(assert
 (let (($x292 (>= r_1_2 0)))
 (and $x292 (< r_1_2 6))))
(assert
 (let (($x301 (>= c_1_2 0)))
 (and $x301 (< c_1_2 6))))
(assert
 (< (- (+ c_1_2 1) 1) 6))
(assert
 (let (($x401 (>= r_1_3 0)))
 (and $x401 (< r_1_3 6))))
(assert
 (let (($x394 (>= c_1_3 0)))
 (and $x394 (< c_1_3 6))))
(assert
 (< (- (+ c_1_3 1) 1) 6))
(assert
 (let (($x620 (>= r_1_4 0)))
 (and $x620 (< r_1_4 6))))
(assert
 (let (($x544 (>= c_1_4 0)))
 (and $x544 (< c_1_4 6))))
(assert
 (< (- (+ c_1_4 1) 1) 6))
(assert
 (let (($x672 (>= r_1_5 0)))
 (and $x672 (< r_1_5 6))))
(assert
 (let (($x806 (>= c_1_5 0)))
 (and $x806 (< c_1_5 6))))
(assert
 (< (- (+ c_1_5 1) 1) 6))
(assert
 (let (($x945 (>= r_1_6 0)))
 (and $x945 (< r_1_6 6))))
(assert
 (let (($x944 (>= c_1_6 0)))
 (and $x944 (< c_1_6 6))))
(assert
 (< (- (+ c_1_6 1) 1) 6))
(assert
 (let (($x1210 (>= r_1_7 0)))
 (and $x1210 (< r_1_7 6))))
(assert
 (let (($x900 (>= c_1_7 0)))
 (and $x900 (< c_1_7 6))))
(assert
 (< (- (+ c_1_7 1) 1) 6))
(assert
 (let (($x163 (= r_0_1 r_0_0)))
 (let (($x162 (= c_0_1 c_0_0)))
 (let (($x164 (and $x162 $x163)))
 (or $x164 (and $x162 (= r_0_1 (+ r_0_0 1))) (and $x162 (= r_0_1 (- r_0_0 1))))))))
(assert
 (= move_0_0 (or (and (distinct r_0_1 r_0_0) true) (and (distinct c_0_1 c_0_0) true))))
(assert
 (let (($x255 (= r_0_2 r_0_1)))
 (let (($x257 (= c_0_2 c_0_1)))
 (let (($x256 (and $x257 $x255)))
 (or $x256 (and $x257 (= r_0_2 (+ r_0_1 1))) (and $x257 (= r_0_2 (- r_0_1 1))))))))
(assert
 (= move_0_1 (or (and (distinct r_0_2 r_0_1) true) (and (distinct c_0_2 c_0_1) true))))
(assert
 (let (($x469 (= r_0_3 r_0_2)))
 (let (($x468 (= c_0_3 c_0_2)))
 (let (($x470 (and $x468 $x469)))
 (or $x470 (and $x468 (= r_0_3 (+ r_0_2 1))) (and $x468 (= r_0_3 (- r_0_2 1))))))))
(assert
 (= move_0_2 (or (and (distinct r_0_3 r_0_2) true) (and (distinct c_0_3 c_0_2) true))))
(assert
 (let (($x403 (= r_0_4 r_0_3)))
 (let (($x456 (= c_0_4 c_0_3)))
 (let (($x405 (and $x456 $x403)))
 (or $x405 (and $x456 (= r_0_4 (+ r_0_3 1))) (and $x456 (= r_0_4 (- r_0_3 1))))))))
(assert
 (= move_0_3 (or (and (distinct r_0_4 r_0_3) true) (and (distinct c_0_4 c_0_3) true))))
(assert
 (let (($x785 (= r_0_5 r_0_4)))
 (let (($x717 (= c_0_5 c_0_4)))
 (let (($x699 (and $x717 $x785)))
 (or $x699 (and $x717 (= r_0_5 (+ r_0_4 1))) (and $x717 (= r_0_5 (- r_0_4 1))))))))
(assert
 (= move_0_4 (or (and (distinct r_0_5 r_0_4) true) (and (distinct c_0_5 c_0_4) true))))
(assert
 (let (($x811 (= r_0_6 r_0_5)))
 (let (($x924 (= c_0_6 c_0_5)))
 (let (($x892 (and $x924 $x811)))
 (or $x892 (and $x924 (= r_0_6 (+ r_0_5 1))) (and $x924 (= r_0_6 (- r_0_5 1))))))))
(assert
 (= move_0_5 (or (and (distinct r_0_6 r_0_5) true) (and (distinct c_0_6 c_0_5) true))))
(assert
 (let (($x982 (= r_0_7 r_0_6)))
 (let (($x1127 (= c_0_7 c_0_6)))
 (let (($x1001 (and $x1127 $x982)))
 (or $x1001 (and $x1127 (= r_0_7 (+ r_0_6 1))) (and $x1127 (= r_0_7 (- r_0_6 1))))))))
(assert
 (= move_0_6 (or (and (distinct r_0_7 r_0_6) true) (and (distinct c_0_7 c_0_6) true))))
(assert
 (let (($x189 (= c_1_1 c_1_0)))
 (let (($x188 (= r_1_1 r_1_0)))
 (let (($x190 (and $x188 $x189)))
 (or $x190 (and $x188 (= c_1_1 (+ c_1_0 1))) (and $x188 (= c_1_1 (- c_1_0 1))))))))
(assert
 (= move_1_0 (or (and (distinct r_1_1 r_1_0) true) (and (distinct c_1_1 c_1_0) true))))
(assert
 (let (($x324 (= c_1_2 c_1_1)))
 (let (($x323 (= r_1_2 r_1_1)))
 (let (($x325 (and $x323 $x324)))
 (or $x325 (and $x323 (= c_1_2 (+ c_1_1 1))) (and $x323 (= c_1_2 (- c_1_1 1))))))))
(assert
 (= move_1_1 (or (and (distinct r_1_2 r_1_1) true) (and (distinct c_1_2 c_1_1) true))))
(assert
 (let (($x488 (= c_1_3 c_1_2)))
 (let (($x419 (= r_1_3 r_1_2)))
 (let (($x494 (and $x419 $x488)))
 (or $x494 (and $x419 (= c_1_3 (+ c_1_2 1))) (and $x419 (= c_1_3 (- c_1_2 1))))))))
(assert
 (= move_1_2 (or (and (distinct r_1_3 r_1_2) true) (and (distinct c_1_3 c_1_2) true))))
(assert
 (let (($x664 (= c_1_4 c_1_3)))
 (let (($x663 (= r_1_4 r_1_3)))
 (let (($x665 (and $x663 $x664)))
 (or $x665 (and $x663 (= c_1_4 (+ c_1_3 1))) (and $x663 (= c_1_4 (- c_1_3 1))))))))
(assert
 (= move_1_3 (or (and (distinct r_1_4 r_1_3) true) (and (distinct c_1_4 c_1_3) true))))
(assert
 (let (($x553 (= c_1_5 c_1_4)))
 (let (($x551 (= r_1_5 r_1_4)))
 (let (($x382 (and $x551 $x553)))
 (or $x382 (and $x551 (= c_1_5 (+ c_1_4 1))) (and $x551 (= c_1_5 (- c_1_4 1))))))))
(assert
 (= move_1_4 (or (and (distinct r_1_5 r_1_4) true) (and (distinct c_1_5 c_1_4) true))))
(assert
 (let (($x881 (= c_1_6 c_1_5)))
 (let (($x865 (= r_1_6 r_1_5)))
 (let (($x950 (and $x865 $x881)))
 (or $x950 (and $x865 (= c_1_6 (+ c_1_5 1))) (and $x865 (= c_1_6 (- c_1_5 1))))))))
(assert
 (= move_1_5 (or (and (distinct r_1_6 r_1_5) true) (and (distinct c_1_6 c_1_5) true))))
(assert
 (let (($x1021 (= c_1_7 c_1_6)))
 (let (($x1022 (= r_1_7 r_1_6)))
 (let (($x731 (and $x1022 $x1021)))
 (or $x731 (and $x1022 (= c_1_7 (+ c_1_6 1))) (and $x1022 (= c_1_7 (- c_1_6 1))))))))
(assert
 (= move_1_6 (or (and (distinct r_1_7 r_1_6) true) (and (distinct c_1_7 c_1_6) true))))
(assert
 (or (not move_0_0) (not move_1_0)))
(assert
 (or move_0_0 move_1_0))
(assert
 (or (not move_0_1) (not move_1_1)))
(assert
 (or move_0_1 move_1_1))
(assert
 (or (not move_0_2) (not move_1_2)))
(assert
 (or move_0_2 move_1_2))
(assert
 (or (not move_0_3) (not move_1_3)))
(assert
 (or move_0_3 move_1_3))
(assert
 (or (not move_0_4) (not move_1_4)))
(assert
 (or move_0_4 move_1_4))
(assert
 (or (not move_0_5) (not move_1_5)))
(assert
 (or move_0_5 move_1_5))
(assert
 (or (not move_0_6) (not move_1_6)))
(assert
 (or move_0_6 move_1_6))
(assert
 (let ((?x82 (+ c_1_0 0)))
 (let (($x84 (and (distinct c_0_0 ?x82) true)))
 (or (and (distinct (+ r_0_0 0) r_1_0) true) $x84))))
(assert
 (let ((?x82 (+ c_1_0 0)))
 (let (($x84 (and (distinct c_0_0 ?x82) true)))
 (or (and (distinct (+ r_0_0 1) r_1_0) true) $x84))))
(assert
 (let ((?x82 (+ c_1_0 0)))
 (let (($x84 (and (distinct c_0_0 ?x82) true)))
 (or (and (distinct (+ r_0_0 2) r_1_0) true) $x84))))
(assert
 (let ((?x219 (+ c_1_1 0)))
 (let (($x221 (and (distinct c_0_1 ?x219) true)))
 (or (and (distinct (+ r_0_1 0) r_1_1) true) $x221))))
(assert
 (let ((?x219 (+ c_1_1 0)))
 (let (($x221 (and (distinct c_0_1 ?x219) true)))
 (or (and (distinct (+ r_0_1 1) r_1_1) true) $x221))))
(assert
 (let ((?x219 (+ c_1_1 0)))
 (let (($x221 (and (distinct c_0_1 ?x219) true)))
 (or (and (distinct (+ r_0_1 2) r_1_1) true) $x221))))
(assert
 (let ((?x354 (+ c_1_2 0)))
 (let (($x356 (and (distinct c_0_2 ?x354) true)))
 (or (and (distinct (+ r_0_2 0) r_1_2) true) $x356))))
(assert
 (let ((?x354 (+ c_1_2 0)))
 (let (($x356 (and (distinct c_0_2 ?x354) true)))
 (or (and (distinct (+ r_0_2 1) r_1_2) true) $x356))))
(assert
 (let ((?x354 (+ c_1_2 0)))
 (let (($x356 (and (distinct c_0_2 ?x354) true)))
 (or (and (distinct (+ r_0_2 2) r_1_2) true) $x356))))
(assert
 (let ((?x509 (+ c_1_3 0)))
 (let (($x511 (and (distinct c_0_3 ?x509) true)))
 (or (and (distinct (+ r_0_3 0) r_1_3) true) $x511))))
(assert
 (let ((?x509 (+ c_1_3 0)))
 (let (($x511 (and (distinct c_0_3 ?x509) true)))
 (or (and (distinct (+ r_0_3 1) r_1_3) true) $x511))))
(assert
 (let ((?x509 (+ c_1_3 0)))
 (let (($x511 (and (distinct c_0_3 ?x509) true)))
 (or (and (distinct (+ r_0_3 2) r_1_3) true) $x511))))
(assert
 (let ((?x622 (+ c_1_4 0)))
 (let (($x641 (and (distinct c_0_4 ?x622) true)))
 (or (and (distinct (+ r_0_4 0) r_1_4) true) $x641))))
(assert
 (let ((?x622 (+ c_1_4 0)))
 (let (($x641 (and (distinct c_0_4 ?x622) true)))
 (or (and (distinct (+ r_0_4 1) r_1_4) true) $x641))))
(assert
 (let ((?x622 (+ c_1_4 0)))
 (let (($x641 (and (distinct c_0_4 ?x622) true)))
 (or (and (distinct (+ r_0_4 2) r_1_4) true) $x641))))
(assert
 (let ((?x834 (+ c_1_5 0)))
 (let (($x836 (and (distinct c_0_5 ?x834) true)))
 (or (and (distinct (+ r_0_5 0) r_1_5) true) $x836))))
(assert
 (let ((?x834 (+ c_1_5 0)))
 (let (($x836 (and (distinct c_0_5 ?x834) true)))
 (or (and (distinct (+ r_0_5 1) r_1_5) true) $x836))))
(assert
 (let ((?x834 (+ c_1_5 0)))
 (let (($x836 (and (distinct c_0_5 ?x834) true)))
 (or (and (distinct (+ r_0_5 2) r_1_5) true) $x836))))
(assert
 (let ((?x684 (+ c_1_6 0)))
 (let (($x682 (and (distinct c_0_6 ?x684) true)))
 (or (and (distinct (+ r_0_6 0) r_1_6) true) $x682))))
(assert
 (let ((?x684 (+ c_1_6 0)))
 (let (($x682 (and (distinct c_0_6 ?x684) true)))
 (or (and (distinct (+ r_0_6 1) r_1_6) true) $x682))))
(assert
 (let ((?x684 (+ c_1_6 0)))
 (let (($x682 (and (distinct c_0_6 ?x684) true)))
 (or (and (distinct (+ r_0_6 2) r_1_6) true) $x682))))
(assert
 (let ((?x1077 (+ c_1_7 0)))
 (let (($x1112 (and (distinct c_0_7 ?x1077) true)))
 (or (and (distinct (+ r_0_7 0) r_1_7) true) $x1112))))
(assert
 (let ((?x1077 (+ c_1_7 0)))
 (let (($x1112 (and (distinct c_0_7 ?x1077) true)))
 (or (and (distinct (+ r_0_7 1) r_1_7) true) $x1112))))
(assert
 (let ((?x1077 (+ c_1_7 0)))
 (let (($x1112 (and (distinct c_0_7 ?x1077) true)))
 (or (and (distinct (+ r_0_7 2) r_1_7) true) $x1112))))
(assert
 (= r_1_7 2))
(assert
 (= c_1_7 5))
(check-sat)
